 &input
        title = 'C'
	prefix = 'c'
        zed = 6
        dft = 'pz'
	rel = 1
        iswitch = 3
        beta = 0.2
        xmin = -8.0, dx = 0.005
        nld = 3, rlderiv = 2.2, eminld  = -5.0, emaxld  = 5.0, deld = 0.005
        verbosity = 'high'
 /
3
1S  1  0  2.0  1
2S  2  0  2.0  1
2P  2  1  2.0  1
 &inputp
	pseudotype = 1
   	lloc = 1
   	tm = .false.
   	file_pseudopw = 'test.UPF'
        author = 'D.C.'
 /
2
2S  1  0  2.0  0.00  1.4655  1.4655
2P  2  1  2.0  0.00  1.4655  1.4655

